words_hard_train/9412.qaiger
aag 90 15 0 1 75
2
4
8
12
16
20
24
28
40
44
52
68
84
100
118
181
6 3 5
10 6 9
14 10 13
18 14 17
22 18 21
26 22 25
30 26 29
32 27 28
34 31 33
36 19 20
38 37 23
42 38 40
46 44 2
48 2 4
50 49 7
54 51 53
56 50 52
58 55 57
60 46 58
62 61 57
64 7 8
66 65 11
70 67 69
72 66 68
74 71 73
76 63 74
78 77 73
80 11 12
82 81 15
86 83 85
88 82 84
90 87 89
92 79 90
94 93 89
96 15 16
98 97 19
102 99 101
104 98 100
106 103 105
108 95 106
110 109 105
112 43 110
114 39 41
116 113 115
120 117 119
122 23 24
124 123 27
126 124 118
128 121 127
130 116 125
132 128 131
134 34 133
136 35 132
138 135 137
140 47 59
142 141 61
144 62 75
146 145 77
148 78 91
150 149 93
152 147 151
154 143 152
156 94 107
158 157 109
160 154 159
162 42 111
164 160 163
166 110 114
168 125 119
170 169 127
172 167 171
174 164 173
176 117 170
178 174 177
180 138 179
i0 2 y1[0]
i1 2 y1[1]
i2 2 y1[2]
i3 2 y1[3]
i4 2 y1[4]
i5 2 y1[5]
i6 2 y1[6]
i7 2 y1[7]
i8 1 x1[6]
i9 1 x1[1]
i10 1 x1[2]
i11 1 x1[3]
i12 1 x1[4]
i13 1 x1[5]
i14 1 x1[7]
o0 bv[0]
c
simplified
  >=
    1
    xor
      1
      subtract
        >> 1
          1 x1
        2 y1
