words_hard_train/9412.qaiger.qdimacs
p cnf 90 226
a 34 42 50 20 22 26 59 0
e 1 2 3 4 5 6 7 8 9 10 11 12 13 14 15 16 17 18 19 21 23 24 25 27 28 29 30 31 32 33 35 36 37 38 39 40 41 43 44 45 46 47 48 49 51 52 53 54 55 56 57 58 60 61 62 63 64 65 66 67 68 69 70 71 72 73 74 75 76 77 78 79 80 81 82 83 84 85 86 87 88 89 90 0
1 2 3 0
-1 -3 0
-2 -3 0
-3 4 5 0
3 -5 0
-4 -5 0
-5 6 7 0
5 -7 0
-6 -7 0
-7 8 9 0
7 -9 0
-8 -9 0
-9 10 11 0
9 -11 0
-10 -11 0
-11 12 13 0
11 -13 0
-12 -13 0
-13 14 15 0
13 -15 0
-14 -15 0
13 -14 16 0
-13 -16 0
14 -16 0
15 16 17 0
-15 -17 0
-16 -17 0
9 -10 18 0
-9 -18 0
10 -18 0
18 11 19 0
-18 -19 0
-11 -19 0
-19 -20 21 0
19 -21 0
20 -21 0
-22 -1 23 0
22 -23 0
1 -23 0
-1 -2 24 0
1 -24 0
2 -24 0
24 3 25 0
-24 -25 0
-3 -25 0
25 26 27 0
-25 -27 0
-26 -27 0
-25 -26 28 0
25 -28 0
26 -28 0
27 28 29 0
-27 -29 0
-28 -29 0
-23 -29 30 0
23 -30 0
29 -30 0
30 28 31 0
-30 -31 0
-28 -31 0
3 -4 32 0
-3 -32 0
4 -32 0
32 5 33 0
-32 -33 0
-5 -33 0
33 34 35 0
-33 -35 0
-34 -35 0
-33 -34 36 0
33 -36 0
34 -36 0
35 36 37 0
-35 -37 0
-36 -37 0
31 -37 38 0
-31 -38 0
37 -38 0
38 36 39 0
-38 -39 0
-36 -39 0
5 -6 40 0
-5 -40 0
6 -40 0
40 7 41 0
-40 -41 0
-7 -41 0
41 42 43 0
-41 -43 0
-42 -43 0
-41 -42 44 0
41 -44 0
42 -44 0
43 44 45 0
-43 -45 0
-44 -45 0
39 -45 46 0
-39 -46 0
45 -46 0
46 44 47 0
-46 -47 0
-44 -47 0
7 -8 48 0
-7 -48 0
8 -48 0
48 9 49 0
-48 -49 0
-9 -49 0
49 50 51 0
-49 -51 0
-50 -51 0
-49 -50 52 0
49 -52 0
50 -52 0
51 52 53 0
-51 -53 0
-52 -53 0
47 -53 54 0
-47 -54 0
53 -54 0
54 52 55 0
-54 -55 0
-52 -55 0
21 -55 56 0
-21 -56 0
55 -56 0
19 20 57 0
-19 -57 0
-20 -57 0
56 57 58 0
-56 -58 0
-57 -58 0
58 59 60 0
-58 -60 0
-59 -60 0
11 -12 61 0
-11 -61 0
12 -61 0
61 13 62 0
-61 -62 0
-13 -62 0
-62 -59 63 0
62 -63 0
59 -63 0
60 63 64 0
-60 -64 0
-63 -64 0
-58 62 65 0
58 -65 0
-62 -65 0
-64 65 66 0
64 -66 0
-65 -66 0
-17 66 67 0
17 -67 0
-66 -67 0
17 -66 68 0
-17 -68 0
66 -68 0
67 68 69 0
-67 -69 0
-68 -69 0
23 29 70 0
-23 -70 0
-29 -70 0
70 30 71 0
-70 -71 0
-30 -71 0
-31 37 72 0
31 -72 0
-37 -72 0
72 38 73 0
-72 -73 0
-38 -73 0
-39 45 74 0
39 -74 0
-45 -74 0
74 46 75 0
-74 -75 0
-46 -75 0
73 75 76 0
-73 -76 0
-75 -76 0
71 -76 77 0
-71 -77 0
76 -77 0
-47 53 78 0
47 -78 0
-53 -78 0
78 54 79 0
-78 -79 0
-54 -79 0
-77 79 80 0
77 -80 0
-79 -80 0
-21 55 81 0
21 -81 0
-55 -81 0
-80 81 82 0
80 -82 0
-81 -82 0
-55 -57 83 0
55 -83 0
57 -83 0
62 59 84 0
-62 -84 0
-59 -84 0
84 63 85 0
-84 -85 0
-63 -85 0
83 85 86 0
-83 -86 0
-85 -86 0
-82 86 87 0
82 -87 0
-86 -87 0
58 -85 88 0
-58 -88 0
85 -88 0
-87 88 89 0
87 -89 0
-88 -89 0
-69 89 90 0
69 -90 0
-89 -90 0
-90 0
